33D32945 STP File, STP Format Version 1.0

SECTION Comments
Name "cube_n12_d2_s29"
Problem "Euclidean Steiner Tree Problem"
Remark "Generated with STPGenerator. 2 dimensions."
END

SECTION Graph
Nodes 12
END

SECTION Coordinates
DD 0 0.8759893737 0.4619202984
DD 1 0.7565934233 0.2626699606
DD 2 0.5662877856 0.3799464867
DD 3 0.4450082292 0.5312397017
DD 4 0.8309675659 0.9260082347
DD 5 0.7454492528 0.1616497483
DD 6 0.1027180125 0.9668541835
DD 7 0.2171490557 0.7873155781
DD 8 0.2256253200 0.6172168532
DD 9 0.5542016586 0.1448612135
DD 10 0.5434454384 0.7647884776
DD 11 0.3240588770 0.6973411928
END
